37
759
2
12,88,99,62,47,22,3,64,31,2,32,68,28,19,40,36,50,15,54,5,75,58,88,80,13,86,67,63,55,37,83,52,24,86,53,19,5
7,39,92,77,63,39,12,13,25,77,7,2,42,9,67,3,52,1,45,34,40,60,67,12,55,42,75,94,63,99,51,61,85,4,69,82,22
2,1,1,1,2,1,2,1,2,1,1,1,2,2,2,2,1,2,2,2,2,2,2,2,2,2,2,1,1,1,1,1,2,1,1,2,2
